n_machines = 5;
n_resources = 7;
n_jobs = 35;
horizon = 169;
LB = 33;
n_jobs_per_resource = [5, 5, 5, 5, 5, 5, 5];
duration = [6, 2, 4, 2, 6, 4, 5, 8, 4, 4, 9, 5, 1, 8, 2, 4, 4, 3, 2, 5, 8, 3, 7, 4, 4, 1, 7, 4, 3, 8, 4, 5, 7, 8, 8]